c output.enc
c
p cnf 155 50 
c =========  rule 1  ============
-28 27 0
-27 28 18 2 0
-44 43 0
-43 44 34 2 0
-30 29 0
-29 30 18 2 0
-48 47 0
-47 48 34 2 0
-16 15 0
-15 16 4 2 0
-32 31 0
-31 32 18 2 0
-38 37 0
-37 38 34 2 0
-10 9 0
-9 10 4 2 0
-24 23 0
-23 24 18 2 0
-40 39 0
-39 40 34 2 0
-8 7 0
-7 8 4 2 0
-22 21 0
-21 22 18 2 0
-2 1 0
-1 2 0
-14 13 0
-13 14 4 2 0
-20 19 0
-19 20 18 2 0
-4 3 0
-3 4 2 0
-12 11 0
-11 12 4 2 0
-26 25 0
-25 26 18 2 0
-42 41 0
-41 42 34 2 0
-50 49 0
-49 50 34 2 0
-6 5 0
-5 6 4 2 0
-46 45 0
-45 46 34 2 0
-36 35 0
-35 36 34 2 0
-18 17 0
-17 18 2 0
-34 33 0
-33 34 2 0
c =========  rule 2  ============
-41 60 61 62 63 64 65 66 67 68 87 88 89 90 91 92 93 94 95 97 100 103 123 124 125 126 127 128 129 130 131 133 136 139 143 146 0
-37 56 83 117 118 119 0
-49 77 113 153 154 155 0
-31 77 111 112 113 154 0
-47 69 70 71 74 105 106 107 110 147 148 149 150 151 152 0
-27 62 65 68 89 92 95 96 97 98 99 100 101 102 103 104 125 128 131 132 133 134 135 136 137 138 139 140 143 146 0
-29 69 70 71 73 105 106 107 108 109 110 147 148 149 151 0
-13 69 70 71 72 73 74 105 106 107 110 147 148 149 151 0
-35 53 80 114 115 116 0
-23 57 58 59 84 85 86 120 121 122 0
-39 57 58 59 84 85 86 120 121 122 0
-45 61 64 67 88 91 94 97 100 103 124 127 130 133 136 139 141 142 143 144 145 146 0
-7 54 55 56 83 118 0
-19 52 78 79 80 115 0
-5 51 52 53 80 115 0
-21 55 81 82 83 118 0
-9 57 58 59 84 85 86 120 121 122 0
-43 62 65 68 89 92 95 96 97 98 99 100 101 102 103 104 125 128 131 132 133 134 135 136 137 138 139 140 143 146 0
-25 60 61 62 63 64 65 66 67 68 87 88 89 90 91 92 93 94 95 97 100 103 123 124 125 126 127 128 129 130 131 133 136 139 143 146 0
-15 75 76 77 112 154 0
-11 60 61 62 63 64 65 66 67 68 87 88 89 90 91 92 93 94 95 97 100 103 123 124 125 126 127 128 129 130 131 133 136 139 143 146 0
c =========  rule 3  ============
-51 5 0
-51 -19 0
-51 -35 0
-52 5 0
-52 19 0
-52 -35 0
-53 5 0
-53 35 0
-53 -19 0
-54 7 0
-54 -21 0
-54 -37 0
-55 7 0
-55 21 0
-55 -37 0
-56 7 0
-56 37 0
-56 -21 0
-57 9 0
-57 23 0
-57 39 0
-58 9 0
-58 23 0
-58 39 0
-59 9 0
-59 23 0
-59 39 0
-60 11 0
-60 25 0
-60 41 0
-60 -27 0
-60 -43 0
-60 -45 0
-61 11 0
-61 25 0
-61 41 0
-61 45 0
-61 -27 0
-61 -43 0
-62 11 0
-62 25 0
-62 41 0
-62 27 0
-62 43 0
-62 -45 0
-63 11 0
-63 25 0
-63 41 0
-63 -27 0
-63 -43 0
-63 -45 0
-64 11 0
-64 25 0
-64 41 0
-64 45 0
-64 -27 0
-64 -43 0
-65 11 0
-65 25 0
-65 41 0
-65 27 0
-65 43 0
-65 -45 0
-66 11 0
-66 25 0
-66 41 0
-66 -27 0
-66 -43 0
-66 -45 0
-67 11 0
-67 25 0
-67 41 0
-67 45 0
-67 -27 0
-67 -43 0
-68 11 0
-68 25 0
-68 41 0
-68 27 0
-68 43 0
-68 -45 0
-69 13 0
-69 29 0
-69 47 0
-70 13 0
-70 29 0
-70 47 0
-71 13 0
-71 29 0
-71 47 0
-72 13 0
-72 -29 0
-72 -47 0
-73 13 0
-73 29 0
-73 -47 0
-74 13 0
-74 47 0
-74 -29 0
-75 15 0
-75 -31 0
-75 -49 0
-76 15 0
-76 -31 0
-76 -49 0
-77 15 0
-77 31 0
-77 49 0
-78 19 0
-78 -5 0
-78 -35 0
-79 19 0
-79 -5 0
-79 -35 0
-80 5 0
-80 19 0
-80 35 0
-81 21 0
-81 -7 0
-81 -37 0
-82 21 0
-82 -7 0
-82 -37 0
-83 7 0
-83 21 0
-83 37 0
-84 9 0
-84 23 0
-84 39 0
-85 9 0
-85 23 0
-85 39 0
-86 9 0
-86 23 0
-86 39 0
-87 11 0
-87 25 0
-87 41 0
-87 -27 0
-87 -43 0
-87 -45 0
-88 11 0
-88 25 0
-88 41 0
-88 45 0
-88 -27 0
-88 -43 0
-89 11 0
-89 25 0
-89 41 0
-89 27 0
-89 43 0
-89 -45 0
-90 11 0
-90 25 0
-90 41 0
-90 -27 0
-90 -43 0
-90 -45 0
-91 11 0
-91 25 0
-91 41 0
-91 45 0
-91 -27 0
-91 -43 0
-92 11 0
-92 25 0
-92 41 0
-92 27 0
-92 43 0
-92 -45 0
-93 11 0
-93 25 0
-93 41 0
-93 -27 0
-93 -43 0
-93 -45 0
-94 11 0
-94 25 0
-94 41 0
-94 45 0
-94 -27 0
-94 -43 0
-95 11 0
-95 25 0
-95 41 0
-95 27 0
-95 43 0
-95 -45 0
-96 27 0
-96 43 0
-96 -11 0
-96 -25 0
-96 -41 0
-96 -45 0
-97 11 0
-97 25 0
-97 41 0
-97 27 0
-97 43 0
-97 45 0
-98 27 0
-98 43 0
-98 -11 0
-98 -25 0
-98 -41 0
-98 -45 0
-99 27 0
-99 43 0
-99 -11 0
-99 -25 0
-99 -41 0
-99 -45 0
-100 11 0
-100 25 0
-100 41 0
-100 27 0
-100 43 0
-100 45 0
-101 27 0
-101 43 0
-101 -11 0
-101 -25 0
-101 -41 0
-101 -45 0
-102 27 0
-102 43 0
-102 -11 0
-102 -25 0
-102 -41 0
-102 -45 0
-103 11 0
-103 25 0
-103 41 0
-103 27 0
-103 43 0
-103 45 0
-104 27 0
-104 43 0
-104 -11 0
-104 -25 0
-104 -41 0
-104 -45 0
-105 13 0
-105 29 0
-105 47 0
-106 13 0
-106 29 0
-106 47 0
-107 13 0
-107 29 0
-107 47 0
-108 29 0
-108 -13 0
-108 -47 0
-109 29 0
-109 -13 0
-109 -47 0
-110 13 0
-110 29 0
-110 47 0
-111 31 0
-111 -15 0
-111 -49 0
-112 15 0
-112 31 0
-112 -49 0
-113 31 0
-113 49 0
-113 -15 0
-114 35 0
-114 -5 0
-114 -19 0
-115 5 0
-115 19 0
-115 35 0
-116 35 0
-116 -5 0
-116 -19 0
-117 37 0
-117 -7 0
-117 -21 0
-118 7 0
-118 21 0
-118 37 0
-119 37 0
-119 -7 0
-119 -21 0
-120 9 0
-120 23 0
-120 39 0
-121 9 0
-121 23 0
-121 39 0
-122 9 0
-122 23 0
-122 39 0
-123 11 0
-123 25 0
-123 41 0
-123 -27 0
-123 -43 0
-123 -45 0
-124 11 0
-124 25 0
-124 41 0
-124 45 0
-124 -27 0
-124 -43 0
-125 11 0
-125 25 0
-125 41 0
-125 27 0
-125 43 0
-125 -45 0
-126 11 0
-126 25 0
-126 41 0
-126 -27 0
-126 -43 0
-126 -45 0
-127 11 0
-127 25 0
-127 41 0
-127 45 0
-127 -27 0
-127 -43 0
-128 11 0
-128 25 0
-128 41 0
-128 27 0
-128 43 0
-128 -45 0
-129 11 0
-129 25 0
-129 41 0
-129 -27 0
-129 -43 0
-129 -45 0
-130 11 0
-130 25 0
-130 41 0
-130 45 0
-130 -27 0
-130 -43 0
-131 11 0
-131 25 0
-131 41 0
-131 27 0
-131 43 0
-131 -45 0
-132 27 0
-132 43 0
-132 -11 0
-132 -25 0
-132 -41 0
-132 -45 0
-133 11 0
-133 25 0
-133 41 0
-133 27 0
-133 43 0
-133 45 0
-134 27 0
-134 43 0
-134 -11 0
-134 -25 0
-134 -41 0
-134 -45 0
-135 27 0
-135 43 0
-135 -11 0
-135 -25 0
-135 -41 0
-135 -45 0
-136 11 0
-136 25 0
-136 41 0
-136 27 0
-136 43 0
-136 45 0
-137 27 0
-137 43 0
-137 -11 0
-137 -25 0
-137 -41 0
-137 -45 0
-138 27 0
-138 43 0
-138 -11 0
-138 -25 0
-138 -41 0
-138 -45 0
-139 11 0
-139 25 0
-139 41 0
-139 27 0
-139 43 0
-139 45 0
-140 27 0
-140 43 0
-140 -11 0
-140 -25 0
-140 -41 0
-140 -45 0
-141 45 0
-141 -11 0
-141 -25 0
-141 -41 0
-141 -27 0
-141 -43 0
-142 45 0
-142 -11 0
-142 -25 0
-142 -41 0
-142 -27 0
-142 -43 0
-143 11 0
-143 25 0
-143 41 0
-143 27 0
-143 43 0
-143 45 0
-144 45 0
-144 -11 0
-144 -25 0
-144 -41 0
-144 -27 0
-144 -43 0
-145 45 0
-145 -11 0
-145 -25 0
-145 -41 0
-145 -27 0
-145 -43 0
-146 11 0
-146 25 0
-146 41 0
-146 27 0
-146 43 0
-146 45 0
-147 13 0
-147 29 0
-147 47 0
-148 13 0
-148 29 0
-148 47 0
-149 13 0
-149 29 0
-149 47 0
-150 47 0
-150 -13 0
-150 -29 0
-151 13 0
-151 29 0
-151 47 0
-152 47 0
-152 -13 0
-152 -29 0
-153 49 0
-153 -15 0
-153 -31 0
-154 15 0
-154 31 0
-154 49 0
-155 49 0
-155 -15 0
-155 -31 0
c =========  user input  ============
-28 0
-44 0
-30 0
-48 0
-16 0
-32 0
-38 0
-10 0
-24 0
-40 0
-8 0
-22 0
-2 0
-14 0
-20 0
4 0
-12 0
-26 0
-42 0
-50 0
-6 0
-46 0
-36 0
-18 0
-34 0
